(define-fun randomness-mapping-GETAOUT
    (
        (sample-ctr-old-left Int)
        (sample-ctr-old-right Int)
        (sample-id-left SampleId)
        (sample-id-right SampleId)
        (sample-ctr-left Int)
        (sample-ctr-right Int)
    )
    Bool
    (or
        (and
            (= h 1)
            (= sample-id-left (sample-id "KeysTop" "GETAOUT" "r"))
            (= sample-id-right (sample-id "SimulatedLayersKeys" "LGETAOUT" "r"))
            (= sample-ctr-left sample-ctr-old-left)
            (= sample-ctr-right sample-ctr-old-right)
        )
        (and
            (= h 1)
            (= sample-id-left (sample-id "KeysTop" "GETAOUT" "rr"))
            (= sample-id-right (sample-id "SimulatedLayersKeys" "LGETAOUT" "rr"))
            (= sample-ctr-left sample-ctr-old-left)
            (= sample-ctr-right sample-ctr-old-right)
        )
        (and
            (> h 1)
            (= sample-id-left (sample-id "SimulatedLayersKeys" "LGETAOUT" "r"))
            (= sample-id-right (sample-id "SimulatedLayersKeys" "LGETAOUT" "r"))
            (= sample-ctr-left sample-ctr-old-left)
            (= sample-ctr-right sample-ctr-old-right)
        )
        (and
            (> h 1)
            (= sample-id-left (sample-id "SimulatedLayersKeys" "LGETAOUT" "rr"))
            (= sample-id-right (sample-id "SimulatedLayersKeys" "LGETAOUT" "rr"))
            (= sample-ctr-left sample-ctr-old-left)
            (= sample-ctr-right sample-ctr-old-right)
        )
    )
)

(define-fun randomness-mapping-SETBIT
    (
        (sample-ctr-old-left Int)
        (sample-ctr-old-right Int)
        (sample-id-left SampleId)
        (sample-id-right SampleId)
        (sample-ctr-left Int)
        (sample-ctr-right Int)
    )
    Bool
    false
)

(define-fun randomness-mapping-GBLG
    (
        (sample-ctr-old-left Int)
        (sample-ctr-old-right Int)
        (sample-id-left SampleId)
        (sample-id-right SampleId)
        (sample-ctr-left Int)
        (sample-ctr-right Int)
    )
    Bool
    (or
        (and 
            (< <arg-GBLG-i> h)
            (or 
                (= sample-id-left sample-id-right (sample-id "SimulatedLayersKeys" "LGETAOUT" "r"))
                (= sample-id-left sample-id-right (sample-id "SimulatedLayersKeys" "LGETAOUT" "rr"))
                (= sample-id-left sample-id-right (sample-id "LayeredSim" "LSIMGBLG" "rin_round_0"))
                (= sample-id-left sample-id-right (sample-id "LayeredSim" "LSIMGBLG" "rin_round_1"))
                (= sample-id-left sample-id-right (sample-id "LayeredSim" "LSIMGBLG" "rin_round_2"))
                (= sample-id-left sample-id-right (sample-id "LayeredSim" "LSIMGBLG" "rin_round_3"))
                (= sample-id-left sample-id-right (sample-id "LayeredSim" "LSIMGBLG" "rout_round_0"))
                (= sample-id-left sample-id-right (sample-id "LayeredSim" "LSIMGBLG" "rout_round_1"))
                (= sample-id-left sample-id-right (sample-id "LayeredSim" "LSIMGBLG" "rout_round_2"))
                (= sample-id-left sample-id-right (sample-id "LayeredSim" "LSIMGBLG" "rout_round_3"))
            )
            (= sample-ctr-left sample-ctr-old-left)
            (= sample-ctr-right sample-ctr-old-right)
        )
        (and 
            (= <arg-GBLG-i> (- h 1))
            (= sample-id-left (sample-id "KeysTop" "GETAOUT" "r"))
            (= sample-id-right (sample-id "SimulatedLayersKeys" "LGETAOUT" "r"))
            (= sample-ctr-left sample-ctr-old-left)
            (= sample-ctr-right sample-ctr-old-right)
        )
        (and 
            (= <arg-GBLG-i> (- h 1))
            (= sample-id-left (sample-id "KeysTop" "GETAOUT" "rr"))
            (= sample-id-right (sample-id "SimulatedLayersKeys" "LGETAOUT" "rr"))
            (= sample-ctr-left sample-ctr-old-left)
            (= sample-ctr-right sample-ctr-old-right)
        )
        (and 
            (= <arg-GBLG-i> h)
            (= sample-ctr-left sample-ctr-old-left)
            (= sample-ctr-right sample-ctr-old-right)
                    (= sample-id-left (sample-id "KeysBot" "GETAOUT" "r"))
                    (= sample-id-right (sample-id "KeysTop" "GETAOUT" "r"))
        )
        (and 
            (= <arg-GBLG-i> h)
            (= sample-ctr-left sample-ctr-old-left)
            (= sample-ctr-right sample-ctr-old-right)
                    (= sample-id-left (sample-id "KeysBot" "GETAOUT" "rr"))
                    (= sample-id-right (sample-id "KeysTop" "GETAOUT" "rr"))
        )
        (and 
            (= <arg-GBLG-i> h)
            (= sample-ctr-left sample-ctr-old-left)
            (= sample-ctr-right sample-ctr-old-right)
            (= sample-id-left (sample-id "Sim" "GBLG" "rin_round_0"))
            (= sample-id-right (sample-id "LayeredSim" "LSIMGBLG" "rin_round_0"))
        )
        (and 
            (= <arg-GBLG-i> h)
            (= sample-ctr-left sample-ctr-old-left)
            (= sample-ctr-right sample-ctr-old-right)
            (= sample-id-left (sample-id "Sim" "GBLG" "rout_round_0"))
            (= sample-id-right (sample-id "LayeredSim" "LSIMGBLG" "rout_round_0"))
        )
        (and 
            (= <arg-GBLG-i> h)
            (= sample-ctr-left sample-ctr-old-left)
            (= sample-ctr-right sample-ctr-old-right)
            (= sample-id-left (sample-id "Sim" "GBLG" "rin_round_1"))
            (= sample-id-right (sample-id "LayeredSim" "LSIMGBLG" "rin_round_1"))
        )
        (and 
            (= <arg-GBLG-i> h)
            (= sample-ctr-left sample-ctr-old-left)
            (= sample-ctr-right sample-ctr-old-right)
            (= sample-id-left (sample-id "Sim" "GBLG" "rout_round_1"))
            (= sample-id-right (sample-id "LayeredSim" "LSIMGBLG" "rout_round_1"))
        )
        (and 
            (= <arg-GBLG-i> h)
            (= sample-ctr-left sample-ctr-old-left)
            (= sample-ctr-right sample-ctr-old-right)
            (= sample-id-left (sample-id "Sim" "GBLG" "rin_round_2"))
            (= sample-id-right (sample-id "LayeredSim" "LSIMGBLG" "rin_round_2"))
        )
        (and 
            (= <arg-GBLG-i> h)
            (= sample-ctr-left sample-ctr-old-left)
            (= sample-ctr-right sample-ctr-old-right)
            (= sample-id-left (sample-id "Sim" "GBLG" "rout_round_2"))
            (= sample-id-right (sample-id "LayeredSim" "LSIMGBLG" "rout_round_2"))
        )
        (and 
            (= <arg-GBLG-i> h)
            (= sample-ctr-left sample-ctr-old-left)
            (= sample-ctr-right sample-ctr-old-right)
            (= sample-id-left (sample-id "Sim" "GBLG" "rin_round_3"))
            (= sample-id-right (sample-id "LayeredSim" "LSIMGBLG" "rin_round_3"))
        )
        (and 
            (= <arg-GBLG-i> h)
            (= sample-ctr-left sample-ctr-old-left)
            (= sample-ctr-right sample-ctr-old-right)
            (= sample-id-left (sample-id "Sim" "GBLG" "rout_round_3"))
            (= sample-id-right (sample-id "LayeredSim" "LSIMGBLG" "rout_round_3"))
        )
        (and 
            (= <arg-GBLG-i> (+ h 1))
            (= sample-ctr-left sample-ctr-old-left)
            (= sample-ctr-right sample-ctr-old-right)
            (= sample-id-left (sample-id "RealLayersKeys" "LGETKEYSOUT" "r"))
            (= sample-id-right (sample-id "KeysBot" "GETKEYSOUT" "r"))
        )
        (and 
            (= <arg-GBLG-i> (+ h 1))
            (= sample-ctr-left sample-ctr-old-left)
            (= sample-ctr-right sample-ctr-old-right)
            (= sample-id-left (sample-id "RealLayersKeys" "LGETKEYSOUT" "rr"))
            (= sample-id-right (sample-id "KeysBot" "GETKEYSOUT" "rr"))
        )
        (and 
            (= <arg-GBLG-i> (+ h 1))
            (= (- sample-ctr-left sample-ctr-old-left) (- sample-ctr-right sample-ctr-old-right))
            (= sample-id-left (sample-id "LayeredEnc0" "LENCN" "r"))
            (= sample-id-right (sample-id "Enc" "ENCN" "r"))
        )
        (and 
            (= <arg-GBLG-i> (+ h 1))
            (= (- sample-ctr-left sample-ctr-old-left) (- sample-ctr-right sample-ctr-old-right))
            (= sample-id-left (sample-id "LayeredEnc0" "LENCM" "r"))
            (= sample-id-right (sample-id "Enc" "ENCM" "r"))
        )
        (and 
            (> <arg-GBLG-i> (+ h 1))
            (= sample-ctr-left sample-ctr-old-left)
            (= sample-ctr-right sample-ctr-old-right)
            (= sample-id-left (sample-id "RealLayersKeys" "LGETKEYSOUT" "r"))
            (= sample-id-right (sample-id "RealLayersKeys" "LGETKEYSOUT" "r"))
        )
        (and 
            (> <arg-GBLG-i> (+ h 1))
            (= sample-ctr-left sample-ctr-old-left)
            (= sample-ctr-right sample-ctr-old-right)
            (= sample-id-left (sample-id "RealLayersKeys" "LGETKEYSOUT" "rr"))
            (= sample-id-right (sample-id "RealLayersKeys" "LGETKEYSOUT" "rr"))
        )
        (and 
            (> <arg-GBLG-i> (+ h 1))
            (= (- sample-ctr-left sample-ctr-old-left) (- sample-ctr-right sample-ctr-old-right))
            (= sample-id-left (sample-id "LayeredEnc0" "LENCN" "r"))
            (= sample-id-right (sample-id "LayeredEnc0" "LENCN" "r"))
        )
        (and 
            (> <arg-GBLG-i> (+ h 1))
            (= (- sample-ctr-left sample-ctr-old-left) (- sample-ctr-right sample-ctr-old-right))
            (= sample-id-left (sample-id "LayeredEnc0" "LENCM" "r"))
            (= sample-id-right (sample-id "LayeredEnc0" "LENCM" "r"))
        )
    )
)

(define-fun randomness-mapping-GETKEYSIN
    (
        (sample-ctr-old-left Int)
        (sample-ctr-old-right Int)
        (sample-id-left SampleId)
        (sample-id-right SampleId)
        (sample-ctr-left Int)
        (sample-ctr-right Int)
    )
    Bool
    false
)